SYSTEM = GaAs
PREC = Normal
ENCUT = 400
ISMEAR = -5
SIGMA = 0.1
IBRION = 2
POTIM = 0.1
NFREE = 2
NSW = 100
ISIF = 3
PSTRESS = 0
